g3 0 1 0	# problem harker
 20 7 1 0 7	# vars, constraints, objectives, ranges, eqns
 0 1	# nonlinear constraints, objectives
 0 0	# network constraints: nonlinear, linear
 0 20 0	# nonlinear vars in constraints, objectives, both
 0 0 0 1	# linear network variables; functions; arith, flags
 0 0 0 0 0	# discrete variables: binary, integer, nonlinear (b,c,o)
 40 20	# nonzeros in Jacobian, gradients
 0 0	# max name lengths: constraints, variables
 0 0 0 0 0	# common exprs: b,c,o,c1,o1
b
2 0
2 0
2 0
2 0
2 0
2 0
2 0
2 0
2 0
2 0
2 0
2 0
2 0
2 0
2 0
2 0
2 0
2 0
2 0
2 0
x6
14 25
15 25
16 25
17 25
18 25
19 25
r
4 0
4 0
4 0
4 0
4 0
4 0
4 0
C0
n0
C1
n0
C2
n0
C3
n0
C4
n0
C5
n0
C6
n0
O0 0
o54
20
o2
n0.1
o5
v14
n2
o2
n0.5
o5
v17
n2
o2
n0.005
o5
v15
n2
o2
n0.4
o5
v18
n2
o2
n0.15
o5
v16
n2
o2
n0.3
o5
v19
n2
o2
n0.166666666666667
o5
v0
n3
o2
n0.0666666666666667
o5
v1
n3
o2
n0.1
o5
v2
n3
o2
n0.133333333333333
o5
v3
n3
o2
n0.1
o5
v4
n3
o2
n0.0333333333333333
o5
v5
n3
o2
n0.0333333333333333
o5
v6
n3
o2
n0.166666666666667
o5
v7
n3
o2
n0.0666666666666667
o5
v8
n3
o2
n0.333333333333333
o5
v9
n3
o2
n0.0833333333333333
o5
v10
n3
o2
n0.0666666666666667
o5
v11
n3
o2
n0.3
o5
v12
n3
o2
n0.266666666666667
o5
v13
n3
k19
2
4
6
8
10
12
14
16
18
20
22
24
26
28
30
32
34
36
38
J0 6
14 1
15 1
16 1
17 -1
18 -1
19 -1
J1 6
0 -1
1 -1
4 1
7 1
14 -1
17 1
J2 4
2 -1
10 1
15 -1
18 1
J3 4
3 -1
11 1
16 -1
19 1
J4 6
0 1
4 -1
5 -1
6 -1
8 1
12 1
J5 6
1 1
5 1
7 -1
8 -1
9 -1
13 1
J6 8
2 1
3 1
6 1
9 1
10 -1
11 -1
12 -1
13 -1
G0 20
0 1
1 2
2 3
3 1
4 2
5 1
6 1
7 3
8 2
9 1
10 2
11 2
12 1
13 3
14 -19
15 -27
16 -30
17 1
18 2
19 1.5
